Minimize
  obj: x0 + x1 + x2 + x3 + x4 + x5 + x6 + x7 + x8 + x9 + x10

Subject To
  c0: x0 + x1 + x2 + x3 + x4 + x5 + x6 + x7 + x10 = 262
  c1: x0 + x1 + x2 + x3 + x4 + x6 + x7 + x8 + x9 = 251
  c2: x1 + x2 + x5 + x6 + x8 + x9 + x10 = 67
  c3: x1 + x2 + x3 + x6 + x8 + x10 = 59
  c4: x1 + x3 + x6 + x8 + x9 + x10 = 45
  c5: x2 + x3 + x4 + x6 + x7 + x8 + x10 = 62
  c6: x0 + x1 + x2 + x4 + x6 + x7 = 224
  c7: x1 + x2 + x4 + x6 + x7 + x8 + x9 = 63
  c8: x0 + x3 + x4 + x6 + x7 + x8 + x10 = 214
  c9: x1 + x2 + x4 + x5 + x9 + x10 = 65

Bounds
  x0 >= 0
  x1 >= 0
  x2 >= 0
  x3 >= 0
  x4 >= 0
  x5 >= 0
  x6 >= 0
  x7 >= 0
  x8 >= 0
  x9 >= 0
  x10 >= 0

Generals
  x0 x1 x2 x3 x4 x5 x6 x7 x8 x9 x10

End
